certificates/rado_a12_c68_N33.cnf
c Rad2 upper bound instance: x1 + 12*x2 - x3 = 68, interval [1,33]
p cnf 33 180
1 5 6 0
-1 -5 -6 0
1 7 17 0
-1 -7 -17 0
1 8 29 0
-1 -8 -29 0
2 6 0
-2 -6 0
2 7 18 0
-2 -7 -18 0
2 8 30 0
-2 -8 -30 0
3 6 7 0
-3 -6 -7 0
3 7 19 0
-3 -7 -19 0
3 8 31 0
-3 -8 -31 0
4 6 8 0
-4 -6 -8 0
4 7 20 0
-4 -7 -20 0
4 8 32 0
-4 -8 -32 0
5 6 9 0
-5 -6 -9 0
5 7 21 0
-5 -7 -21 0
5 8 33 0
-5 -8 -33 0
6 10 0
-6 -10 0
6 7 22 0
-6 -7 -22 0
6 7 11 0
-6 -7 -11 0
7 23 0
-7 -23 0
6 8 12 0
-6 -8 -12 0
7 8 24 0
-7 -8 -24 0
1 5 9 0
-1 -5 -9 0
6 9 13 0
-6 -9 -13 0
7 9 25 0
-7 -9 -25 0
2 5 10 0
-2 -5 -10 0
6 10 14 0
-6 -10 -14 0
7 10 26 0
-7 -10 -26 0
3 5 11 0
-3 -5 -11 0
6 11 15 0
-6 -11 -15 0
7 11 27 0
-7 -11 -27 0
4 5 12 0
-4 -5 -12 0
6 12 16 0
-6 -12 -16 0
7 12 28 0
-7 -12 -28 0
5 13 0
-5 -13 0
6 13 17 0
-6 -13 -17 0
7 13 29 0
-7 -13 -29 0
5 6 14 0
-5 -6 -14 0
6 14 18 0
-6 -14 -18 0
7 14 30 0
-7 -14 -30 0
5 7 15 0
-5 -7 -15 0
6 15 19 0
-6 -15 -19 0
7 15 31 0
-7 -15 -31 0
5 8 16 0
-5 -8 -16 0
6 16 20 0
-6 -16 -20 0
7 16 32 0
-7 -16 -32 0
5 9 17 0
-5 -9 -17 0
6 17 21 0
-6 -17 -21 0
7 17 33 0
-7 -17 -33 0
5 10 18 0
-5 -10 -18 0
6 18 22 0
-6 -18 -22 0
5 11 19 0
-5 -11 -19 0
6 19 23 0
-6 -19 -23 0
5 12 20 0
-5 -12 -20 0
6 20 24 0
-6 -20 -24 0
1 4 21 0
-1 -4 -21 0
5 13 21 0
-5 -13 -21 0
6 21 25 0
-6 -21 -25 0
2 4 22 0
-2 -4 -22 0
5 14 22 0
-5 -14 -22 0
6 22 26 0
-6 -22 -26 0
3 4 23 0
-3 -4 -23 0
5 15 23 0
-5 -15 -23 0
6 23 27 0
-6 -23 -27 0
4 24 0
-4 -24 0
5 16 24 0
-5 -16 -24 0
6 24 28 0
-6 -24 -28 0
4 5 25 0
-4 -5 -25 0
5 17 25 0
-5 -17 -25 0
6 25 29 0
-6 -25 -29 0
4 6 26 0
-4 -6 -26 0
5 18 26 0
-5 -18 -26 0
6 26 30 0
-6 -26 -30 0
4 7 27 0
-4 -7 -27 0
5 19 27 0
-5 -19 -27 0
6 27 31 0
-6 -27 -31 0
4 8 28 0
-4 -8 -28 0
5 20 28 0
-5 -20 -28 0
6 28 32 0
-6 -28 -32 0
4 9 29 0
-4 -9 -29 0
5 21 29 0
-5 -21 -29 0
6 29 33 0
-6 -29 -33 0
4 10 30 0
-4 -10 -30 0
5 22 30 0
-5 -22 -30 0
4 11 31 0
-4 -11 -31 0
5 23 31 0
-5 -23 -31 0
4 12 32 0
-4 -12 -32 0
5 24 32 0
-5 -24 -32 0
1 3 33 0
-1 -3 -33 0
4 13 33 0
-4 -13 -33 0
5 25 33 0
-5 -25 -33 0
