certificates/rado_a12_c68_N33.drat
6 -30 0
-6 -33 0
-33 0
-6 30 0
6 0
-2 0
-10 0
30 0
5 0
-26 0
-13 0
-22 0
-1 0
-9 0
-14 0
7 0
4 0
3 0
-21 0
-11 0
-23 0
-15 0
0
